# Solution for model RMP_EVSP
# Objective value = 6.9030909659999943e+08
a[0] 1
a[1] 1
a[2] 0
a[3] 0
a[4] 1
a[5] 0
a[6] 1
a[7] 0
a[8] 0
a[9] 0
a[10] 1
a[11] 0
a[12] 0
a[13] 1
a[14] 1
a[15] 1
a[16] 0
a[17] 1
a[18] 0
a[19] 1
a[20] 0
a[21] 0
a[22] 0
a[23] 1
a[24] 0
a[25] 0
a[26] 0
a[27] 0
a[28] 0
a[29] 0
a[30] 0
a[31] 0
a[32] 1
a[33] 1
a[34] 1
a[35] 0
a[36] 0
a[37] 0
a[38] 0
a[39] 0
a[40] 0
a[41] 0
a[42] 0
a[43] 1
a[44] 0
a[45] 1
a[46] 0
a[47] 1
a[48] 0
a[49] 0
a[50] 0
a[51] 0
a[52] 0
a[53] 0
a[54] 1
a[55] 0
a[56] 1
a[57] 1
a[58] 0
a[59] 1
a[60] 1
a[61] 0
a[62] 0
a[63] 0
a[64] 1
a[65] 0
a[66] 0
a[67] 0
a[68] 0
a[69] 0
a[70] 0
a[71] 0
a[72] 0
a[73] 1
a[74] 0
a[75] 0
a[76] 0
a[77] 0
a[78] 0
a[79] 0
a[80] 0
a[81] 0
a[82] 0
a[83] 0
a[84] 0
a[85] 0
a[86] 0
a[87] 0
a[88] 0
a[89] 0
a[90] 0
a[91] 0
a[92] 0
a[93] 0
a[94] 0
a[95] 0
a[96] 1
a[97] 0
a[98] 0
a[99] 1
a[100] 0
a[101] 1
a[102] 0
a[103] 1
a[104] 0
a[105] 0
a[106] 0
a[107] 0
a[108] 0
a[109] 0
a[110] 0
a[111] 0
a[112] 0
a[113] 0
a[114] 0
a[115] 0
a[116] 0
a[117] 1
a[118] 0
a[119] 0
a[120] 1
a[121] 0
a[122] 0
a[123] 0
a[124] 0
a[125] 0
a[126] 0
a[127] 1
a[128] 1
a[129] 0
a[130] 0
a[131] 1
a[132] 1
a[133] 1
a[134] 0
a[135] 0
a[136] 0
a[137] 0
a[138] 1
a[139] 0
a[140] 1
a[141] 1
a[142] 0
a[143] 0
a[144] 1
a[145] 0
a[146] 1
a[147] 0
a[148] 0
a[149] 1
a[150] 0
a[151] 0
a[152] 0
a[153] 0
a[154] 0
a[155] 1
a[156] 0
a[157] 0
a[158] 0
a[159] 1
a[160] 1
a[161] 0
a[162] 1
a[163] 0
a[164] 1
a[165] 0
a[166] 0
a[167] 0
a[168] 0
a[169] 0
a[170] 0
a[171] 0
a[172] 1
a[173] 1
a[174] 0
a[175] 0
a[176] 0
a[177] 0
a[178] 0
a[179] 0
a[180] 0
a[181] 1
a[182] 0
a[183] 0
a[184] 1
a[185] 0
a[186] 0
a[187] 1
a[188] 0
a[189] 0
a[190] 0
a[191] 0
a[192] 0
a[193] 0
a[194] 0
a[195] 1
a[196] 0
a[197] 0
a[198] 0
a[199] 0
a[200] 0
a[201] 0
a[202] 0
a[203] 0
a[204] 0
a[205] 0
a[206] 0
a[207] 0
a[208] 0
a[209] 0
a[210] 0
a[211] 0
a[212] 0
a[213] 0
a[214] 0
a[215] 0
a[216] 0
a[217] 0
a[218] 0
a[219] 0
a[220] 0
a[221] 0
a[222] 0
a[223] 0
a[224] 0
a[225] 0
a[226] 0
a[227] 0
a[228] 0
a[229] 0
a[230] 0
a[231] 0
a[232] 0
a[233] 0
a[234] 0
a[235] 0
a[236] 0
a[237] 0
a[238] 0
a[239] 0
a[240] 0
a[241] 0
a[242] 0
a[243] 0
a[244] 0
a[245] 0
a[246] 0
a[247] 0
a[248] 1
a[249] 0
a[250] 1
a[251] 0
a[252] 0
a[253] 0
a[254] 0
a[255] 0
a[256] 0
a[257] 0
a[258] 0
a[259] 0
a[260] 0
a[261] 0
a[262] 0
a[263] 0
a[264] 0
a[265] 0
a[266] 0
a[267] 0
a[268] 0
a[269] 0
a[270] 0
a[271] 0
a[272] 0
a[273] 0
a[274] 0
a[275] 0
a[276] 0
a[277] 0
a[278] 0
a[279] 0
a[280] 0
a[281] 0
a[282] 0
a[283] 0
a[284] 1
a[285] 0
a[286] 0
a[287] 0
a[288] 0
a[289] 1
a[290] 0
a[291] 0
a[292] 0
a[293] 0
a[294] 0
a[295] 1
a[296] 0
a[297] 0
a[298] 0
a[299] 0
a[300] 0
a[301] 0
a[302] 0
a[303] 0
a[304] 0
a[305] 0
a[306] 0
a[307] 0
a[308] 0
a[309] 0
a[310] 1
a[311] 0
a[312] 0
a[313] 0
a[314] 0
a[315] 0
a[316] 0
a[317] 0
a[318] 0
a[319] 0
a[320] 0
a[321] 0
a[322] 0
a[323] 0
a[324] 0
a[325] 0
a[326] 0
a[327] 0
a[328] 1
a[329] 0
a[330] 0
a[331] 0
a[332] 0
a[333] 0
a[334] 0
a[335] 0
a[336] 0
a[337] 0
a[338] 0
a[339] 0
a[340] 1
a[341] 0
a[342] 0
a[343] 0
a[344] 0
a[345] 0
a[346] 0
a[347] 0
a[348] 0
a[349] 0
a[350] 0
a[351] 0
a[352] 0
a[353] 0
a[354] 0
a[355] 0
a[356] 0
a[357] 0
a[358] 0
a[359] 0
a[360] 0
a[361] 0
a[362] 1
a[363] 0
a[364] 0
a[365] 0
a[366] 0
a[367] 0
a[368] 0
a[369] 0
a[370] 0
a[371] 0
a[372] 0
a[373] 0
a[374] 0
a[375] 0
a[376] 0
a[377] 0
a[378] 0
a[379] 0
a[380] 0
a[381] 0
a[382] 1
a[383] 0
a[384] 0
a[385] 0
a[386] 0
a[387] 0
a[388] 0
a[389] 0
a[390] 0
a[391] 0
a[392] 0
a[393] 0
a[394] 0
a[395] 0
a[396] 0
a[397] 1
a[398] 0
a[399] 0
a[400] 0
a[401] 1
a[402] 1
a[403] 0
a[404] 1
a[405] 1
a[406] 0
a[407] 0
a[408] 0
a[409] 0
a[410] 0
a[411] 0
a[412] 0
a[413] 0
a[414] 0
a[415] 0
a[416] 0
a[417] 0
a[418] 0
a[419] 0
a[420] 0
a[421] 0
a[422] 0
a[423] 0
a[424] 0
a[425] 0
a[426] 0
a[427] 0
a[428] 0
a[429] 1
a[430] 0
a[431] 0
a[432] 0
a[433] 0
a[434] 0
a[435] 0
a[436] 0
a[437] 0
a[438] 0
a[439] 0
a[440] 0
a[441] 0
a[442] 1
a[443] 1
a[444] 0
a[445] 0
a[446] 0
a[447] 0
a[448] 0
a[449] 0
a[450] 0
a[451] 0
a[452] 0
a[453] 0
a[454] 0
a[455] 0
a[456] 0
a[457] 0
a[458] 1
a[459] 0
a[460] 1
a[461] 0
a[462] 0
a[463] 0
a[464] 0
a[465] 0
a[466] 0
a[467] 0
a[468] 1
a[469] 0
a[470] 0
a[471] 1
a[472] 1
a[473] 0
a[474] 0
a[475] 0
a[476] 0
a[477] 0
a[478] 1
a[479] 0
a[480] 0
a[481] 0
a[482] 0
a[483] 0
a[484] 0
a[485] 0
a[486] 0
a[487] 0
a[488] 0
a[489] 0
a[490] 0
a[491] 0
a[492] 0
a[493] 0
a[494] 1
a[495] 0
a[496] 0
a[497] 0
a[498] 0
a[499] 0
a[500] 0
a[501] 0
a[502] 0
a[503] 0
a[504] 0
a[505] 0
a[506] 0
a[507] 0
a[508] 0
a[509] 0
a[510] 0
a[511] 0
a[512] 0
a[513] 0
a[514] 0
a[515] 0
a[516] 0
a[517] 0
a[518] 0
a[519] 0
a[520] 0
a[521] 0
a[522] 1
a[523] 1
a[524] 0
a[525] 0
a[526] 0
a[527] 1
a[528] 0
a[529] 0
a[530] 0
a[531] 0
a[532] 0
a[533] 0
a[534] 1
a[535] 0
a[536] 0
a[537] 0
a[538] 1
a[539] 0
a[540] 0
a[541] 0
a[542] 0
a[543] 0
a[544] 0
a[545] 0
a[546] 0
a[547] 0
a[548] 0
a[549] 0
a[550] 0
a[551] 0
a[552] 0
a[553] 0
a[554] 0
a[555] 0
a[556] 0
a[557] 0
a[558] 0
a[559] 0
a[560] 1
a[561] 1
a[562] 0
a[563] 0
a[564] 1
a[565] 1
a[566] 0
a[567] 0
a[568] 0
a[569] 0
a[570] 0
a[571] 0
a[572] 0
a[573] 0
a[574] 0
a[575] 0
a[576] 0
a[577] 0
a[578] 0
a[579] 0
a[580] 1
a[581] 0
a[582] 0
a[583] 0
a[584] 0
a[585] 1
a[586] 1
a[587] 0
a[588] 0
a[589] 0
a[590] 0
a[591] 0
a[592] 0
a[593] 0
a[594] 0
a[595] 0
a[596] 0
a[597] 0
a[598] 0
a[599] 0
a[600] 0
a[601] 0
a[602] 1
a[603] 0
a[604] 0
a[605] 0
a[606] 0
a[607] 0
a[608] 0
a[609] 0
a[610] 0
a[611] 0
a[612] 0
a[613] 0
a[614] 0
a[615] 1
a[616] 0
a[617] 0
a[618] 0
a[619] 0
a[620] 0
a[621] 0
a[622] 0
a[623] 0
a[624] 0
a[625] 0
a[626] 0
a[627] 1
a[628] 0
a[629] 0
a[630] 0
a[631] 0
a[632] 0
a[633] 0
a[634] 0
a[635] 0
a[636] 0
a[637] 0
a[638] 0
a[639] 0
a[640] 0
a[641] 0
a[642] 0
a[643] 0
a[644] 0
a[645] 0
a[646] 0
a[647] 1
a[648] 0
a[649] 0
a[650] 0
a[651] 0
a[652] 0
a[653] 0
a[654] 0
a[655] 0
a[656] 0
a[657] 0
a[658] 0
a[659] 0
a[660] 0
a[661] 0
a[662] 0
a[663] 0
a[664] 0
a[665] 0
a[666] 0
a[667] 0
a[668] 0
a[669] 0
a[670] 0
a[671] 0
a[672] 0
a[673] 0
a[674] 0
a[675] 0
a[676] 0
a[677] 0
a[678] 0
a[679] 0
a[680] 0
a[681] 0
a[682] 0
a[683] 0
a[684] 0
a[685] 1
a[686] 0
a[687] 0
a[688] 0
a[689] 0
a[690] 0
a[691] 0
a[692] 0
a[693] 0
a[694] 1
a[695] 0
a[696] 0
a[697] 0
a[698] 0
a[699] 0
a[700] 0
a[701] 0
a[702] 0
a[703] 0
a[704] 0
a[705] 0
a[706] 0
a[707] 0
a[708] 0
a[709] 0
a[710] 0
a[711] 1
a[712] 0
a[713] 1
a[714] 0
a[715] 0
a[716] 0
a[717] 0
a[718] 0
a[719] 0
a[720] 0
a[721] 0
a[722] 0
a[723] 0
a[724] 0
a[725] 0
a[726] 0
a[727] 0
a[728] 0
a[729] 0
a[730] 0
a[731] 0
a[732] 0
a[733] 0
a[734] 0
a[735] 0
a[736] 0
a[737] 0
a[738] 0
a[739] 0
a[740] 0
a[741] 0
a[742] 0
a[743] 1
a[744] 1
a[745] 1
a[746] 1
a[747] 0
a[748] 0
a[749] 0
a[750] 0
a[751] 0
a[752] 0
a[753] 0
a[754] 0
a[755] 0
a[756] 0
a[757] 0
a[758] 0
a[759] 0
a[760] 0
a[761] 0
a[762] 0
a[763] 0
a[764] 0
a[765] 0
a[766] 0
a[767] 0
a[768] 0
a[769] 0
a[770] 0
a[771] 0
a[772] 0
a[773] 0
a[774] 0
a[775] 0
a[776] 0
a[777] 0
a[778] 0
a[779] 0
a[780] 0
a[781] 0
a[782] 1
a[783] 1
a[784] 0
a[785] 0
a[786] 0
a[787] 0
a[788] 0
a[789] 0
a[790] 0
a[791] 0
a[792] 0
a[793] 0
a[794] 0
a[795] 0
a[796] 0
a[797] 0
a[798] 0
a[799] 0
a[800] 0
a[801] 0
a[802] 0
a[803] 0
a[804] 0
a[805] 0
a[806] 0
a[807] 0
a[808] 0
a[809] 0
a[810] 1
a[811] 1
a[812] 0
a[813] 0
a[814] 0
a[815] 0
a[816] 0
a[817] 0
a[818] 0
a[819] 1
a[820] 0
a[821] 0
a[822] 0
a[823] 0
a[824] 0
a[825] 0
a[826] 0
a[827] 0
a[828] 0
a[829] 0
a[830] 0
a[831] 0
a[832] 0
a[833] 0
a[834] 0
a[835] 0
a[836] 0
a[837] 0
a[838] 0
a[839] 0
a[840] 0
a[841] 0
a[842] 0
a[843] 0
a[844] 0
a[845] 0
a[846] 0
a[847] 0
a[848] 0
a[849] 0
a[850] 0
a[851] 0
a[852] 0
a[853] 0
a[854] 0
a[855] 0
a[856] 0
a[857] 0
a[858] 0
a[859] 0
a[860] 0
a[861] 0
a[862] 1
a[863] 0
a[864] 0
a[865] 0
a[866] 0
a[867] 0
a[868] 0
a[869] 0
a[870] 0
a[871] 0
a[872] 0
a[873] 1
a[874] 0
a[875] 0
a[876] 1
a[877] 0
a[878] 0
a[879] 0
a[880] 0
a[881] 0
a[882] 0
a[883] 0
a[884] 0
a[885] 0
a[886] 0
a[887] 1
a[888] 1
a[889] 1
a[890] 0
a[891] 0
a[892] 0
a[893] 0
a[894] 0
a[895] 0
a[896] 0
a[897] 0
a[898] 0
a[899] 0
a[900] 0
a[901] 0
a[902] 0
a[903] 0
a[904] 0
a[905] 1
a[906] 1
a[907] 0
a[908] 0
a[909] 0
a[910] 0
a[911] 0
a[912] 0
a[913] 0
a[914] 0
a[915] 0
a[916] 0
a[917] 1
a[918] 0
a[919] 0
a[920] 0
a[921] 0
a[922] 0
a[923] 0
a[924] 0
a[925] 0
a[926] 0
a[927] 0
a[928] 0
a[929] 0
a[930] 0
a[931] 0
a[932] 0
a[933] 0
a[934] 0
a[935] 0
a[936] 1
a[937] 0
a[938] 0
a[939] 0
a[940] 0
a[941] 0
a[942] 0
a[943] 0
a[944] 1
a[945] 0
a[946] 0
a[947] 0
a[948] 0
a[949] 0
a[950] 0
a[951] 0
a[952] 0
a[953] 0
a[954] 0
a[955] 0
a[956] 0
a[957] 0
a[958] 0
a[959] 1
a[960] 0
a[961] 0
a[962] 0
a[963] 0
a[964] 0
a[965] 0
a[966] 0
a[967] 1
a[968] 0
a[969] 0
a[970] 0
a[971] 0
a[972] 0
a[973] 0
a[974] 1
a[975] 0
a[976] 0
a[977] 0
a[978] 0
a[979] 0
a[980] 0
a[981] 0
a[982] 0
a[983] 1
a[984] 0
a[985] 0
a[986] 0
a[987] 0
a[988] 0
a[989] 0
a[990] 0
a[991] 0
a[992] 1
a[993] 0
a[994] 0
a[995] 0
a[996] 0
a[997] 0
a[998] 0
a[999] 0
a[1000] 0
a[1001] 0
a[1002] 0
a[1003] 0
a[1004] 0
a[1005] 1
a[1006] 1
a[1007] 0
a[1008] 0
a[1009] 1
a[1010] 0
a[1011] 0
a[1012] 1
a[1013] 0
a[1014] 0
a[1015] 1
a[1016] 0
a[1017] 1
a[1018] 0
a[1019] 1
a[1020] 0
a[1021] 0
a[1022] 0
a[1023] 0
a[1024] 0
a[1025] 0
a[1026] 0
a[1027] 1
a[1028] 0
a[1029] 0
a[1030] 0
a[1031] 0
a[1032] 1
a[1033] 0
a[1034] 0
a[1035] 0
a[1036] 0
a[1037] 0
a[1038] 1
a[1039] 0
a[1040] 0
a[1041] 1
a[1042] 0
a[1043] 0
a[1044] 0
a[1045] 1
a[1046] 0
a[1047] 0
a[1048] 0
a[1049] 0
a[1050] 1
a[1051] 0
a[1052] 0
a[1053] 1
a[1054] 1
a[1055] 0
a[1056] 0
a[1057] 0
a[1058] 0
a[1059] 0
a[1060] 0
a[1061] 0
a[1062] 0
a[1063] 0
a[1064] 1
a[1065] 0
a[1066] 0
a[1067] 0
a[1068] 0
a[1069] 0
a[1070] 0
a[1071] 0
a[1072] 0
a[1073] 0
a[1074] 0
a[1075] 0
a[1076] 0
a[1077] 1
a[1078] 0
a[1079] 1
a[1080] 0
a[1081] 0
a[1082] 0
a[1083] 1
a[1084] 0
a[1085] 0
a[1086] 0
a[1087] 0
a[1088] 0
a[1089] 1
a[1090] 0
a[1091] 1
a[1092] 0
a[1093] 0
a[1094] 0
a[1095] 0
a[1096] 0
a[1097] 0
a[1098] 0
a[1099] 0
a[1100] 0
a[1101] 0
a[1102] 0
a[1103] 1
a[1104] 0
a[1105] 0
a[1106] 0
a[1107] 0
a[1108] 0
a[1109] 0
a[1110] 1
a[1111] 0
a[1112] 0
a[1113] 0
a[1114] 0
a[1115] 0
a[1116] 0
a[1117] 0
a[1118] 0
a[1119] 1
a[1120] 0
a[1121] 0
a[1122] 0
a[1123] 0
a[1124] 0
a[1125] 0
a[1126] 0
a[1127] 0
a[1128] 0
a[1129] 0
a[1130] 0
a[1131] 0
a[1132] 0
a[1133] 0
a[1134] 1
a[1135] 0
a[1136] 0
a[1137] 0
a[1138] 0
a[1139] 1
a[1140] 0
a[1141] 1
a[1142] 0
a[1143] 0
a[1144] 0
a[1145] 0
a[1146] 0
a[1147] 0
a[1148] 0
a[1149] 0
a[1150] 0
a[1151] 0
a[1152] 0
a[1153] 0
a[1154] 0
a[1155] 0
a[1156] 0
a[1157] 0
a[1158] 1
a[1159] 0
a[1160] 0
a[1161] 0
a[1162] 1
a[1163] 0
a[1164] 0
a[1165] 0
a[1166] 0
a[1167] 0
a[1168] 1
a[1169] 0
a[1170] 1
a[1171] 0
a[1172] 1
a[1173] 0
a[1174] 0
a[1175] 0
a[1176] 0
a[1177] 1
a[1178] 1
a[1179] 0
a[1180] 1
a[1181] 0
a[1182] 0
a[1183] 0
a[1184] 0
a[1185] 1
a[1186] 0
a[1187] 0
a[1188] 0
a[1189] 1
a[1190] 0
a[1191] 1
a[1192] 0
a[1193] 1
a[1194] 0
a[1195] 1
a[1196] 0
a[1197] 1
a[1198] 0
a[1199] 0
a[1200] 0
a[1201] 0
a[1202] 0
a[1203] 0
a[1204] 0
a[1205] 1
a[1206] 0
a[1207] 1
a[1208] 0
a[1209] 0
a[1210] 0
a[1211] 0
a[1212] 0
a[1213] 0
a[1214] 0
a[1215] 0
a[1216] 1
a[1217] 0
a[1218] 1
a[1219] 0
a[1220] 0
a[1221] 0
a[1222] 0
a[1223] 0
a[1224] 0
a[1225] 0
a[1226] 0
a[1227] 0
a[1228] 0
a[1229] 0
a[1230] 0
a[1231] 0
a[1232] 0
a[1233] 0
a[1234] 0
a[1235] 0
a[1236] 0
a[1237] 0
a[1238] 0
a[1239] 0
a[1240] 0
a[1241] 1
a[1242] 0
a[1243] 0
a[1244] 0
a[1245] 1
a[1246] 0
a[1247] 1
a[1248] 0
a[1249] 0
a[1250] 0
a[1251] 0
a[1252] 0
a[1253] 1
a[1254] 1
a[1255] 1
a[1256] 1
a[1257] 0
a[1258] 0
a[1259] 1
a[1260] 0
a[1261] 0
a[1262] 1
a[1263] 0
a[1264] 0
a[1265] 0
a[1266] 0
a[1267] 1
a[1268] 0
a[1269] 1
a[1270] 0
a[1271] 0
a[1272] 0
a[1273] 1
a[1274] 1
a[1275] 0
a[1276] 0
a[1277] 1
a[1278] 0
a[1279] 1
a[1280] 0
a[1281] 1
a[1282] 0
a[1283] 1
a[1284] 0
a[1285] 0
a[1286] 0
a[1287] 0
a[1288] 0
a[1289] 0
a[1290] 1
a[1291] 1
a[1292] 1
a[1293] 1
a[1294] 0
a[1295] 0
a[1296] 0
a[1297] 0
a[1298] 0
a[1299] 0
a[1300] 0
a[1301] 1
a[1302] 0
a[1303] 0
a[1304] 0
a[1305] 0
a[1306] 0
a[1307] 0
a[1308] 0
a[1309] 0
a[1310] 1
a[1311] 1
a[1312] 1
a[1313] 0
a[1314] 0
a[1315] 1
a[1316] 1
a[1317] 1
a[1318] 0
a[1319] 0
a[1320] 0
a[1321] 1
a[1322] 1
a[1323] 0
a[1324] 0
a[1325] 0
a[1326] 0
a[1327] 0
a[1328] 0
a[1329] 1
a[1330] 0
a[1331] 0
a[1332] 1
a[1333] 1
a[1334] 0
a[1335] 0
a[1336] 1
a[1337] 1
a[1338] 0
a[1339] 1
a[1340] 0
a[1341] 0
a[1342] 0
a[1343] 1
a[1344] 1
a[1345] 1
a[1346] 1
a[1347] 1
a[1348] 0
a[1349] 0
a[1350] 0
a[1351] 1
a[1352] 0
a[1353] 1
a[1354] 1
a[1355] 1
a[1356] 1
a[1357] 0
a[1358] 0
a[1359] 1
a[1360] 1
a[1361] 1
a[1362] 1
a[1363] 0
a[1364] 1
a[1365] 0
a[1366] 0
a[1367] 1
a[1368] 0
a[1369] 0
a[1370] 0
a[1371] 1
a[1372] 1
a[1373] 1
a[1374] 0
a[1375] 1
a[1376] 1
a[1377] 0
a[1378] 1
a[1379] 1
a[1380] 1
a[1381] 0
a[1382] 0
a[1383] 1
a[1384] 1
a[1385] 1
a[1386] 1
a[1387] 0
a[1388] 0
a[1389] 1
a[1390] 0
a[1391] 0
a[1392] 0
a[1393] 0
a[1394] 0
a[1395] 0
a[1396] 1
a[1397] 0
a[1398] 1
a[1399] 1
a[1400] 0
a[1401] 1
a[1402] 0
a[1403] 1
a[1404] 1
a[1405] 1
a[1406] 0
a[1407] 0
a[1408] 1
a[1409] 0
a[1410] 1
a[1411] 1
a[1412] 0
a[1413] 0
a[1414] 0
a[1415] 0
a[1416] 1
a[1417] 1
a[1418] 0
a[1419] 0
a[1420] 0
a[1421] 0
a[1422] 0
a[1423] 0
a[1424] 0
a[1425] 1
a[1426] 0
a[1427] 0
a[1428] 1
a[1429] 1
a[1430] 0
a[1431] 0
a[1432] 0
a[1433] 1
a[1434] 1
a[1435] 0
a[1436] 0
a[1437] 0
a[1438] 1
a[1439] 1
a[1440] 0
a[1441] 0
a[1442] 1
a[1443] 0
a[1444] 1
a[1445] 0
a[1446] 0
a[1447] 1
a[1448] 0
a[1449] 0
a[1450] 0
a[1451] 0
a[1452] 1
a[1453] 0
a[1454] 1
a[1455] 1
a[1456] 1
a[1457] 1
a[1458] 0
a[1459] 0
a[1460] 1
a[1461] 0
a[1462] 1
a[1463] 0
a[1464] 1
a[1465] 0
a[1466] 1
a[1467] 1
a[1468] 0
a[1469] 0
a[1470] 0
a[1471] 1
a[1472] 0
a[1473] 1
a[1474] 0
a[1475] 1
a[1476] 0
a[1477] 1
a[1478] 0
a[1479] 1
a[1480] 0
a[1481] 1
a[1482] 0
a[1483] 0
a[1484] 1
a[1485] 0
a[1486] 0
a[1487] 0
a[1488] 0
a[1489] 0
a[1490] 0
a[1491] 1
a[1492] 1
a[1493] 1
a[1494] 1
a[1495] 0
a[1496] 1
a[1497] 0
a[1498] 0
a[1499] 1
a[1500] 0
a[1501] 0
a[1502] 1
a[1503] 0
a[1504] 0
a[1505] 1
a[1506] 1
a[1507] 0
a[1508] 1
a[1509] 1
a[1510] 1
a[1511] 1
a[1512] 0
a[1513] 1
a[1514] 1
a[1515] 1
a[1516] 0
a[1517] 0
a[1518] 0
a[1519] 0
a[1520] 1
a[1521] 1
a[1522] 1
a[1523] 0
a[1524] 0
a[1525] 0
a[1526] 0
a[1527] 0
a[1528] 0
a[1529] 0
a[1530] 0
a[1531] 1
a[1532] 0
a[1533] 1
a[1534] 0
a[1535] 0
a[1536] 0
a[1537] 1
a[1538] 0
a[1539] 0
a[1540] 0
a[1541] 1
a[1542] 0
a[1543] 1
a[1544] 0
a[1545] 1
a[1546] 0
a[1547] 0
a[1548] 1
a[1549] 0
a[1550] 1
a[1551] 0
a[1552] 1
a[1553] 0
a[1554] 0
a[1555] 0
a[1556] 0
a[1557] 0
a[1558] 0
a[1559] 0
a[1560] 0
a[1561] 0
a[1562] 0
a[1563] 0
a[1564] 1
a[1565] 0
a[1566] 0
a[1567] 1
a[1568] 0
a[1569] 1
a[1570] 1
a[1571] 0
a[1572] 1
a[1573] 0
a[1574] 0
a[1575] 0
a[1576] 1
a[1577] 1
a[1578] 0
a[1579] 1
a[1580] 0
a[1581] 0
a[1582] 0
a[1583] 1
a[1584] 0
a[1585] 1
a[1586] 1
a[1587] 0
a[1588] 0
a[1589] 1
a[1590] 1
a[1591] 0
a[1592] 0
a[1593] 0
a[1594] 0
a[1595] 0
a[1596] 0
a[1597] 0
a[1598] 0
a[1599] 0
a[1600] 0
a[1601] 1
a[1602] 0
a[1603] 0
a[1604] 1
a[1605] 0
a[1606] 1
a[1607] 0
a[1608] 0
a[1609] 1
a[1610] 0
a[1611] 1
a[1612] 1
a[1613] 1
a[1614] 1
a[1615] 1
a[1616] 0
a[1617] 0
a[1618] 0
a[1619] 0
a[1620] 0
a[1621] 0
a[1622] 1
a[1623] 0
a[1624] 0
a[1625] 1
a[1626] 1
a[1627] 1
a[1628] 1
a[1629] 1
a[1630] 0
a[1631] 1
a[1632] 0
a[1633] 0
a[1634] 0
a[1635] 1
a[1636] 1
a[1637] 1
a[1638] 0
a[1639] 0
a[1640] 0
a[1641] 1
a[1642] 0
a[1643] 1
a[1644] 0
a[1645] 0
a[1646] 0
a[1647] 0
a[1648] 1
a[1649] 0
a[1650] 0
a[1651] 0
a[1652] 0
a[1653] 0
a[1654] 1
a[1655] 1
a[1656] 0
a[1657] 0
a[1658] 0
a[1659] 1
a[1660] 1
a[1661] 0
a[1662] 0
a[1663] 1
a[1664] 1
a[1665] 1
a[1666] 0
a[1667] 0
a[1668] 0
a[1669] 0
a[1670] 0
a[1671] 0
a[1672] 1
a[1673] 1
a[1674] 0
a[1675] 0
a[1676] 0
a[1677] 1
a[1678] 0
a[1679] 0
a[1680] 0
a[1681] 0
a[1682] 0
a[1683] 0
a[1684] 1
a[1685] 0
a[1686] 0
a[1687] 0
a[1688] 0
a[1689] 1
a[1690] 0
a[1691] 0
a[1692] 0
a[1693] 1
a[1694] 1
a[1695] 1
a[1696] 0
a[1697] 0
a[1698] 1
a[1699] 1
a[1700] 0
a[1701] 0
a[1702] 1
a[1703] 0
a[1704] 1
a[1705] 0
a[1706] 0
a[1707] 1
a[1708] 1
a[1709] 1
a[1710] 0
a[1711] 0
a[1712] 0
a[1713] 0
a[1714] 0
a[1715] 1
a[1716] 1
a[1717] 0
a[1718] 0
a[1719] 1
a[1720] 0
a[1721] 1
a[1722] 0
a[1723] 0
a[1724] 0
a[1725] 1
a[1726] 0
a[1727] 1
a[1728] 0
a[1729] 0
a[1730] 1
a[1731] 0
a[1732] 0
a[1733] 0
a[1734] 0
a[1735] 0
a[1736] 0
a[1737] 0
a[1738] 1
a[1739] 0
a[1740] 1
a[1741] 0
a[1742] 0
a[1743] 0
a[1744] 0
a[1745] 0
a[1746] 0
a[1747] 1
a[1748] 1
a[1749] 0
a[1750] 1
a[1751] 0
a[1752] 1
a[1753] 1
a[1754] 0
a[1755] 0
a[1756] 1
a[1757] 0
a[1758] 0
a[1759] 1
a[1760] 0
a[1761] 0
a[1762] 0
a[1763] 0
a[1764] 1
a[1765] 1
a[1766] 0
a[1767] 0
a[1768] 0
a[1769] 0
a[1770] 0
a[1771] 0
a[1772] 1
a[1773] 0
a[1774] 0
a[1775] 1
a[1776] 0
a[1777] 1
a[1778] 0
a[1779] 0
a[1780] 1
a[1781] 0
a[1782] 1
a[1783] 0
a[1784] 0
a[1785] 1
a[1786] 0
a[1787] 0
a[1788] 1
a[1789] 0
a[1790] 0
a[1791] 0
a[1792] 0
a[1793] 1
a[1794] 0
a[1795] 1
a[1796] 1
a[1797] 0
a[1798] 1
a[1799] 0
a[1800] 0
a[1801] 0
a[1802] 0
a[1803] 0
a[1804] 1
a[1805] 0
a[1806] 0
a[1807] 1
a[1808] 0
a[1809] 1
a[1810] 0
a[1811] 1
a[1812] 0
a[1813] 0
a[1814] 1
a[1815] 0
a[1816] 0
a[1817] 1
a[1818] 0
a[1819] 0
a[1820] 0
a[1821] 0
a[1822] 0
a[1823] 1
a[1824] 1
a[1825] 1
a[1826] 0
a[1827] 1
a[1828] 1
a[1829] 1
a[1830] 1
a[1831] 0
a[1832] 1
a[1833] 0
a[1834] 0
a[1835] 1
a[1836] 0
a[1837] 1
a[1838] 0
a[1839] 1
a[1840] 0
a[1841] 0
a[1842] 0
a[1843] 0
a[1844] 0
a[1845] 1
a[1846] 0
a[1847] 0
a[1848] 0
a[1849] 0
a[1850] 0
a[1851] 1
a[1852] 0
a[1853] 1
a[1854] 0
a[1855] 1
a[1856] 0
a[1857] 0
a[1858] 0
a[1859] 1
a[1860] 0
a[1861] 0
a[1862] 0
a[1863] 1
a[1864] 1
a[1865] 0
a[1866] 0
a[1867] 0
a[1868] 1
a[1869] 0
a[1870] 1
a[1871] 0
a[1872] 0
a[1873] 0
a[1874] 1
a[1875] 0
a[1876] 0
a[1877] 0
a[1878] 0
a[1879] 1
a[1880] 1
a[1881] 1
a[1882] 1
a[1883] 1
a[1884] 0
a[1885] 1
a[1886] 0
a[1887] 1
a[1888] 1
a[1889] 1
a[1890] 0
a[1891] 0
a[1892] 0
a[1893] 1
a[1894] 0
a[1895] 0
a[1896] 1
a[1897] 1
a[1898] 0
a[1899] 1
a[1900] 0
a[1901] 0
a[1902] 1
a[1903] 0
a[1904] 0
a[1905] 0
a[1906] 1
a[1907] 1
a[1908] 1
a[1909] 1
a[1910] 0
a[1911] 0
a[1912] 1
a[1913] 0
a[1914] 1
a[1915] 0
a[1916] 0
a[1917] 0
a[1918] 0
a[1919] 0
a[1920] 0
a[1921] 0
a[1922] 1
a[1923] 0
a[1924] 0
a[1925] 1
a[1926] 1
a[1927] 1
a[1928] 0
a[1929] 1
a[1930] 0
a[1931] 0
a[1932] 0
a[1933] 0
a[1934] 0
a[1935] 0
a[1936] 0
a[1937] 0
a[1938] 1
a[1939] 1
a[1940] 0
a[1941] 1
a[1942] 1
a[1943] 1
a[1944] 0
a[1945] 1
a[1946] 1
a[1947] 0
a[1948] 0
a[1949] 0
a[1950] 1
a[1951] 0
a[1952] 0
a[1953] 0
a[1954] 1
a[1955] 1
a[1956] 0
a[1957] 1
a[1958] 1
a[1959] 0
a[1960] 0
a[1961] 1
a[1962] 0
a[1963] 1
a[1964] 1
a[1965] 0
a[1966] 0
a[1967] 0
a[1968] 1
a[1969] 0
a[1970] 0
a[1971] 1
a[1972] 1
a[1973] 1
a[1974] 1
a[1975] 0
a[1976] 0
a[1977] 1
a[1978] 0
a[1979] 0
a[1980] 0
a[1981] 1
a[1982] 1
a[1983] 0
a[1984] 1
a[1985] 0
a[1986] 0
a[1987] 0
a[1988] 1
a[1989] 0
a[1990] 1
a[1991] 0
a[1992] 0
a[1993] 0
a[1994] 1
a[1995] 0
a[1996] 1
a[1997] 0
a[1998] 1
a[1999] 0
a[2000] 0
a[2001] 0
a[2002] 0
a[2003] 0
a[2004] 0
a[2005] 0
a[2006] 1
a[2007] 1
a[2008] 0
a[2009] 0
a[2010] 1
a[2011] 1
a[2012] 0
a[2013] 1
a[2014] 1
a[2015] 1
a[2016] 0
a[2017] 1
a[2018] 1
a[2019] 0
a[2020] 1
a[2021] 1
a[2022] 1
a[2023] 0
a[2024] 0
a[2025] 1
a[2026] 1
a[2027] 0
a[2028] 0
a[2029] 0
a[2030] 1
a[2031] 1
a[2032] 0
a[2033] 1
a[2034] 1
a[2035] 1
a[2036] 0
a[2037] 1
a[2038] 1
a[2039] 1
a[2040] 0
a[2041] 1
a[2042] 1
a[2043] 1
a[2044] 0
a[2045] 0
a[2046] 0
a[2047] 1
a[2048] 1
a[2049] 1
a[2050] 0
a[2051] 0
a[2052] 1
a[2053] 0
a[2054] 0
a[2055] 1
a[2056] 0
a[2057] 0
a[2058] 0
a[2059] 1
a[2060] 1
a[2061] 1
a[2062] 0
a[2063] 0
a[2064] 0
a[2065] 0
a[2066] 0
a[2067] 0
a[2068] 0
a[2069] 0
a[2070] 1
a[2071] 0
a[2072] 0
a[2073] 0
a[2074] 0
a[2075] 0
a[2076] 0
a[2077] 0
a[2078] 0
a[2079] 0
a[2080] 0
a[2081] 1
a[2082] 0
a[2083] 1
a[2084] 0
a[2085] 0
a[2086] 0
a[2087] 1
a[2088] 1
a[2089] 0
a[2090] 1
a[2091] 0
a[2092] 1
a[2093] 1
a[2094] 0
a[2095] 1
a[2096] 0
a[2097] 1
a[2098] 0
a[2099] 0
a[2100] 0
a[2101] 0
a[2102] 1
a[2103] 0
a[2104] 0
a[2105] 0
a[2106] 0
a[2107] 0
a[2108] 1
a[2109] 1
a[2110] 0
a[2111] 1
a[2112] 0
a[2113] 1
a[2114] 1
a[2115] 1
a[2116] 0
a[2117] 1
a[2118] 0
a[2119] 0
a[2120] 1
a[2121] 0
a[2122] 0
a[2123] 1
a[2124] 0
a[2125] 0
a[2126] 0
a[2127] 1
a[2128] 1
a[2129] 0
a[2130] 0
a[2131] 1
a[2132] 0
a[2133] 0
a[2134] 0
a[2135] 1
a[2136] 0
a[2137] 0
a[2138] 1
a[2139] 0
a[2140] 0
a[2141] 1
a[2142] 0
a[2143] 1
a[2144] 0
a[2145] 0
a[2146] 1
a[2147] 1
a[2148] 1
a[2149] 0
a[2150] 0
a[2151] 1
a[2152] 1
a[2153] 1
a[2154] 0
a[2155] 0
a[2156] 1
a[2157] 1
a[2158] 1
a[2159] 0
a[2160] 0
a[2161] 1
a[2162] 1
a[2163] 0
a[2164] 0
a[2165] 0
a[2166] 1
a[2167] 1
a[2168] 0
a[2169] 0
a[2170] 1
a[2171] 1
a[2172] 0
a[2173] 0
a[2174] 1
a[2175] 1
a[2176] 0
a[2177] 1
a[2178] 1
a[2179] 0
a[2180] 1
a[2181] 1
a[2182] 0
a[2183] 1
a[2184] 1
a[2185] 1
a[2186] 1
a[2187] 1
a[2188] 0
a[2189] 1
a[2190] 1
a[2191] 1
a[2192] 0
a[2193] 0
a[2194] 0
a[2195] 0
a[2196] 1
a[2197] 0
a[2198] 1
a[2199] 1
a[2200] 0
a[2201] 0
a[2202] 1
a[2203] 0
a[2204] 1
a[2205] 1
a[2206] 0
a[2207] 0
a[2208] 0
a[2209] 0
a[2210] 1
a[2211] 1
a[2212] 0
a[2213] 0
a[2214] 0
a[2215] 0
a[2216] 0
a[2217] 1
a[2218] 0
a[2219] 1
a[2220] 1
a[2221] 1
a[2222] 1
a[2223] 0
a[2224] 1
a[2225] 0
a[2226] 0
a[2227] 0
a[2228] 1
a[2229] 0
a[2230] 1
a[2231] 0
a[2232] 0
a[2233] 0
a[2234] 0
a[2235] 0
a[2236] 1
a[2237] 0
a[2238] 0
a[2239] 1
a[2240] 0
a[2241] 1
a[2242] 1
a[2243] 0
a[2244] 1
a[2245] 0
a[2246] 1
a[2247] 1
